# Objective value = 6
C1,2 0
C1,7 0
C2,3 0
C2,8 0
C3,4 0
C3,9 0
C4,5 0
C4,10 0
C5,6 0
C5,11 0
C6,12 0
C7,8 0
C7,13 0
C8,9 0
C8,14 0
C9,10 0
C9,15 0
C10,11 0
C10,16 1
C11,12 0
C11,17 0
C12,18 0
C13,14 0
C13,19 0
C14,15 0
C14,20 0
C15,16 1
C15,21 1
C16,17 0
C16,22 1
C17,18 0
C17,23 0
C18,24 0
C19,20 0
C19,25 0
C20,21 0
C20,26 0
C21,22 1
C21,27 1
C22,23 0
C22,28 1
C23,24 0
C23,29 0
C24,30 0
C25,26 0
C25,31 0
C26,27 0
C26,32 0
C27,28 1
C27,33 1
C28,29 0
C28,34 1
C29,30 0
C29,35 0
C30,36 0
C31,32 0
C32,33 0
C33,34 1
C34,35 0
C35,36 0
Offset 5
X1,1 0
X1,2 0
X1,3 0
X1,4 0
X1,5 0
X1,6 0
X1,7 0
X1,8 0
X1,9 0
X1,10 0
X1,11 0
X1,12 0
X1,13 0
X1,14 0
X1,15 0
X1,16 0
X1,17 0
X1,18 0
X1,19 0
X1,20 0
X1,21 0
X1,22 0
X1,23 0
X1,24 0
X1,25 0
X1,26 0
X1,27 0
X1,28 0
X1,29 0
X1,30 0
X1,31 0
X1,32 0
X1,33 0
X1,34 0
X1,35 0
X1,36 1
X2,1 0
X2,2 0
X2,3 0
X2,4 0
X2,5 0
X2,6 0
X2,7 0
X2,8 0
X2,9 0
X2,10 0
X2,11 0
X2,12 0
X2,13 0
X2,14 0
X2,15 0
X2,16 0
X2,17 0
X2,18 0
X2,19 0
X2,20 0
X2,21 0
X2,22 0
X2,23 0
X2,24 0
X2,25 0
X2,26 0
X2,27 0
X2,28 0
X2,29 0
X2,30 0
X2,31 0
X2,32 0
X2,33 0
X2,34 0
X2,35 1
X2,36 0
X3,1 0
X3,2 0
X3,3 0
X3,4 0
X3,5 0
X3,6 0
X3,7 0
X3,8 0
X3,9 0
X3,10 0
X3,11 0
X3,12 0
X3,13 0
X3,14 0
X3,15 0
X3,16 0
X3,17 0
X3,18 0
X3,19 0
X3,20 0
X3,21 0
X3,22 0
X3,23 0
X3,24 0
X3,25 0
X3,26 0
X3,27 0
X3,28 0
X3,29 0
X3,30 0
X3,31 0
X3,32 0
X3,33 0
X3,34 1
X3,35 0
X3,36 0
X4,1 0
X4,2 0
X4,3 0
X4,4 0
X4,5 0
X4,6 0
X4,7 0
X4,8 0
X4,9 0
X4,10 0
X4,11 0
X4,12 0
X4,13 0
X4,14 0
X4,15 0
X4,16 0
X4,17 0
X4,18 0
X4,19 0
X4,20 0
X4,21 0
X4,22 0
X4,23 0
X4,24 0
X4,25 0
X4,26 0
X4,27 0
X4,28 1
X4,29 0
X4,30 0
X4,31 0
X4,32 0
X4,33 0
X4,34 0
X4,35 0
X4,36 0
X5,1 0
X5,2 0
X5,3 0
X5,4 0
X5,5 0
X5,6 0
X5,7 0
X5,8 0
X5,9 0
X5,10 0
X5,11 0
X5,12 0
X5,13 0
X5,14 0
X5,15 0
X5,16 0
X5,17 0
X5,18 0
X5,19 0
X5,20 0
X5,21 0
X5,22 1
X5,23 0
X5,24 0
X5,25 0
X5,26 0
X5,27 0
X5,28 0
X5,29 0
X5,30 0
X5,31 0
X5,32 0
X5,33 0
X5,34 0
X5,35 0
X5,36 0
X6,1 0
X6,2 0
X6,3 0
X6,4 0
X6,5 0
X6,6 0
X6,7 0
X6,8 0
X6,9 0
X6,10 0
X6,11 0
X6,12 0
X6,13 0
X6,14 0
X6,15 0
X6,16 0
X6,17 0
X6,18 0
X6,19 0
X6,20 0
X6,21 0
X6,22 0
X6,23 1
X6,24 0
X6,25 0
X6,26 0
X6,27 0
X6,28 0
X6,29 0
X6,30 0
X6,31 0
X6,32 0
X6,33 0
X6,34 0
X6,35 0
X6,36 0
X7,1 0
X7,2 0
X7,3 0
X7,4 0
X7,5 0
X7,6 0
X7,7 0
X7,8 0
X7,9 0
X7,10 0
X7,11 0
X7,12 0
X7,13 0
X7,14 0
X7,15 0
X7,16 0
X7,17 0
X7,18 0
X7,19 0
X7,20 0
X7,21 0
X7,22 0
X7,23 0
X7,24 1
X7,25 0
X7,26 0
X7,27 0
X7,28 0
X7,29 0
X7,30 0
X7,31 0
X7,32 0
X7,33 0
X7,34 0
X7,35 0
X7,36 0
X8,1 0
X8,2 0
X8,3 0
X8,4 0
X8,5 0
X8,6 0
X8,7 0
X8,8 0
X8,9 0
X8,10 0
X8,11 0
X8,12 0
X8,13 0
X8,14 0
X8,15 0
X8,16 0
X8,17 0
X8,18 1
X8,19 0
X8,20 0
X8,21 0
X8,22 0
X8,23 0
X8,24 0
X8,25 0
X8,26 0
X8,27 0
X8,28 0
X8,29 0
X8,30 0
X8,31 0
X8,32 0
X8,33 0
X8,34 0
X8,35 0
X8,36 0
X9,1 0
X9,2 0
X9,3 0
X9,4 0
X9,5 0
X9,6 0
X9,7 0
X9,8 0
X9,9 0
X9,10 0
X9,11 0
X9,12 1
X9,13 0
X9,14 0
X9,15 0
X9,16 0
X9,17 0
X9,18 0
X9,19 0
X9,20 0
X9,21 0
X9,22 0
X9,23 0
X9,24 0
X9,25 0
X9,26 0
X9,27 0
X9,28 0
X9,29 0
X9,30 0
X9,31 0
X9,32 0
X9,33 0
X9,34 0
X9,35 0
X9,36 0
X10,1 0
X10,2 0
X10,3 0
X10,4 0
X10,5 0
X10,6 0
X10,7 0
X10,8 0
X10,9 0
X10,10 0
X10,11 1
X10,12 0
X10,13 0
X10,14 0
X10,15 0
X10,16 0
X10,17 0
X10,18 0
X10,19 0
X10,20 0
X10,21 0
X10,22 0
X10,23 0
X10,24 0
X10,25 0
X10,26 0
X10,27 0
X10,28 0
X10,29 0
X10,30 0
X10,31 0
X10,32 0
X10,33 0
X10,34 0
X10,35 0
X10,36 0
X11,1 0
X11,2 0
X11,3 0
X11,4 0
X11,5 0
X11,6 0
X11,7 0
X11,8 0
X11,9 0
X11,10 0
X11,11 0
X11,12 0
X11,13 0
X11,14 0
X11,15 0
X11,16 0
X11,17 1
X11,18 0
X11,19 0
X11,20 0
X11,21 0
X11,22 0
X11,23 0
X11,24 0
X11,25 0
X11,26 0
X11,27 0
X11,28 0
X11,29 0
X11,30 0
X11,31 0
X11,32 0
X11,33 0
X11,34 0
X11,35 0
X11,36 0
X12,1 0
X12,2 0
X12,3 0
X12,4 0
X12,5 0
X12,6 0
X12,7 0
X12,8 0
X12,9 0
X12,10 0
X12,11 0
X12,12 0
X12,13 0
X12,14 0
X12,15 0
X12,16 1
X12,17 0
X12,18 0
X12,19 0
X12,20 0
X12,21 0
X12,22 0
X12,23 0
X12,24 0
X12,25 0
X12,26 0
X12,27 0
X12,28 0
X12,29 0
X12,30 0
X12,31 0
X12,32 0
X12,33 0
X12,34 0
X12,35 0
X12,36 0
X13,1 0
X13,2 0
X13,3 0
X13,4 0
X13,5 0
X13,6 0
X13,7 0
X13,8 0
X13,9 0
X13,10 1
X13,11 0
X13,12 0
X13,13 0
X13,14 0
X13,15 0
X13,16 0
X13,17 0
X13,18 0
X13,19 0
X13,20 0
X13,21 0
X13,22 0
X13,23 0
X13,24 0
X13,25 0
X13,26 0
X13,27 0
X13,28 0
X13,29 0
X13,30 0
X13,31 0
X13,32 0
X13,33 0
X13,34 0
X13,35 0
X13,36 0
X14,1 0
X14,2 0
X14,3 0
X14,4 0
X14,5 0
X14,6 0
X14,7 0
X14,8 0
X14,9 1
X14,10 0
X14,11 0
X14,12 0
X14,13 0
X14,14 0
X14,15 0
X14,16 0
X14,17 0
X14,18 0
X14,19 0
X14,20 0
X14,21 0
X14,22 0
X14,23 0
X14,24 0
X14,25 0
X14,26 0
X14,27 0
X14,28 0
X14,29 0
X14,30 0
X14,31 0
X14,32 0
X14,33 0
X14,34 0
X14,35 0
X14,36 0
X15,1 0
X15,2 0
X15,3 0
X15,4 0
X15,5 0
X15,6 0
X15,7 0
X15,8 0
X15,9 0
X15,10 0
X15,11 0
X15,12 0
X15,13 0
X15,14 0
X15,15 1
X15,16 0
X15,17 0
X15,18 0
X15,19 0
X15,20 0
X15,21 0
X15,22 0
X15,23 0
X15,24 0
X15,25 0
X15,26 0
X15,27 0
X15,28 0
X15,29 0
X15,30 0
X15,31 0
X15,32 0
X15,33 0
X15,34 0
X15,35 0
X15,36 0
X16,1 0
X16,2 0
X16,3 0
X16,4 0
X16,5 0
X16,6 0
X16,7 0
X16,8 0
X16,9 0
X16,10 0
X16,11 0
X16,12 0
X16,13 0
X16,14 0
X16,15 0
X16,16 0
X16,17 0
X16,18 0
X16,19 0
X16,20 0
X16,21 1
X16,22 0
X16,23 0
X16,24 0
X16,25 0
X16,26 0
X16,27 0
X16,28 0
X16,29 0
X16,30 0
X16,31 0
X16,32 0
X16,33 0
X16,34 0
X16,35 0
X16,36 0
X17,1 0
X17,2 0
X17,3 0
X17,4 0
X17,5 0
X17,6 0
X17,7 0
X17,8 0
X17,9 0
X17,10 0
X17,11 0
X17,12 0
X17,13 0
X17,14 0
X17,15 0
X17,16 0
X17,17 0
X17,18 0
X17,19 0
X17,20 1
X17,21 0
X17,22 0
X17,23 0
X17,24 0
X17,25 0
X17,26 0
X17,27 0
X17,28 0
X17,29 0
X17,30 0
X17,31 0
X17,32 0
X17,33 0
X17,34 0
X17,35 0
X17,36 0
X18,1 0
X18,2 0
X18,3 0
X18,4 0
X18,5 0
X18,6 0
X18,7 0
X18,8 0
X18,9 0
X18,10 0
X18,11 0
X18,12 0
X18,13 0
X18,14 0
X18,15 0
X18,16 0
X18,17 0
X18,18 0
X18,19 0
X18,20 0
X18,21 0
X18,22 0
X18,23 0
X18,24 0
X18,25 0
X18,26 1
X18,27 0
X18,28 0
X18,29 0
X18,30 0
X18,31 0
X18,32 0
X18,33 0
X18,34 0
X18,35 0
X18,36 0
X19,1 0
X19,2 0
X19,3 0
X19,4 0
X19,5 0
X19,6 0
X19,7 0
X19,8 0
X19,9 0
X19,10 0
X19,11 0
X19,12 0
X19,13 0
X19,14 0
X19,15 0
X19,16 0
X19,17 0
X19,18 0
X19,19 0
X19,20 0
X19,21 0
X19,22 0
X19,23 0
X19,24 0
X19,25 0
X19,26 0
X19,27 1
X19,28 0
X19,29 0
X19,30 0
X19,31 0
X19,32 0
X19,33 0
X19,34 0
X19,35 0
X19,36 0
X20,1 0
X20,2 0
X20,3 0
X20,4 0
X20,5 0
X20,6 0
X20,7 0
X20,8 0
X20,9 0
X20,10 0
X20,11 0
X20,12 0
X20,13 0
X20,14 0
X20,15 0
X20,16 0
X20,17 0
X20,18 0
X20,19 0
X20,20 0
X20,21 0
X20,22 0
X20,23 0
X20,24 0
X20,25 0
X20,26 0
X20,27 0
X20,28 0
X20,29 0
X20,30 0
X20,31 0
X20,32 0
X20,33 1
X20,34 0
X20,35 0
X20,36 0
I1 0
I2 0
I3 0
I4 0
I5 0
I6 0
I7 0
I8 0
I9 0
I10 1
I11 0
I12 0
I13 0
I14 0
I15 1
I16 1
I17 0
I18 0
I19 0
I20 0
I21 1
I22 1
I23 0
I24 0
I25 0
I26 0
I27 1
I28 1
I29 0
I30 0
I31 0
I32 0
I33 1
I34 1
I35 0
I36 0
